c t pmc
p cnf 959 1282
c p show 1 2 3 4 5 6 7 8 9 10 11 12 13 14 15 16 17 18 19 20 21 22 23 24 25 26 27 0
-1 1 28 0
-1 4 29 0
-1 7 30 0
-10 1 31 0
-10 4 32 0
-10 7 33 0
-19 1 34 0
-19 4 35 0
-19 7 36 0
-1 10 37 0
-1 13 38 0
-1 16 39 0
-10 10 40 0
-10 13 41 0
-10 16 42 0
-19 10 43 0
-19 13 44 0
-19 16 45 0
-1 19 46 0
-1 22 47 0
-1 25 48 0
-10 19 49 0
-10 22 50 0
-10 25 51 0
-19 19 52 0
-19 22 53 0
-19 25 54 0
-4 1 55 0
-4 4 56 0
-4 7 57 0
-13 1 58 0
-13 4 59 0
-13 7 60 0
-22 1 61 0
-22 4 62 0
-22 7 63 0
-4 10 64 0
-4 13 65 0
-4 16 66 0
-13 10 67 0
-13 13 68 0
-13 16 69 0
-22 10 70 0
-22 13 71 0
-22 16 72 0
-4 19 73 0
-4 22 74 0
-4 25 75 0
-13 19 76 0
-13 22 77 0
-13 25 78 0
-22 19 79 0
-22 22 80 0
-22 25 81 0
-7 1 82 0
-7 4 83 0
-7 7 84 0
-16 1 85 0
-16 4 86 0
-16 7 87 0
-25 1 88 0
-25 4 89 0
-25 7 90 0
-7 10 91 0
-7 13 92 0
-7 16 93 0
-16 10 94 0
-16 13 95 0
-16 16 96 0
-25 10 97 0
-25 13 98 0
-25 16 99 0
-7 19 100 0
-7 22 101 0
-7 25 102 0
-16 19 103 0
-16 22 104 0
-16 25 105 0
-25 19 106 0
-25 22 107 0
-25 25 108 0
-2 2 28 0
-2 5 29 0
-2 8 30 0
-11 2 31 0
-11 5 32 0
-11 8 33 0
-20 2 34 0
-20 5 35 0
-20 8 36 0
-2 11 37 0
-2 14 38 0
-2 17 39 0
-11 11 40 0
-11 14 41 0
-11 17 42 0
-20 11 43 0
-20 14 44 0
-20 17 45 0
-2 20 46 0
-2 23 47 0
-2 26 48 0
-11 20 49 0
-11 23 50 0
-11 26 51 0
-20 20 52 0
-20 23 53 0
-20 26 54 0
-5 2 55 0
-5 5 56 0
-5 8 57 0
-14 2 58 0
-14 5 59 0
-14 8 60 0
-23 2 61 0
-23 5 62 0
-23 8 63 0
-5 11 64 0
-5 14 65 0
-5 17 66 0
-14 11 67 0
-14 14 68 0
-14 17 69 0
-23 11 70 0
-23 14 71 0
-23 17 72 0
-5 20 73 0
-5 23 74 0
-5 26 75 0
-14 20 76 0
-14 23 77 0
-14 26 78 0
-23 20 79 0
-23 23 80 0
-23 26 81 0
-8 2 82 0
-8 5 83 0
-8 8 84 0
-17 2 85 0
-17 5 86 0
-17 8 87 0
-26 2 88 0
-26 5 89 0
-26 8 90 0
-8 11 91 0
-8 14 92 0
-8 17 93 0
-17 11 94 0
-17 14 95 0
-17 17 96 0
-26 11 97 0
-26 14 98 0
-26 17 99 0
-8 20 100 0
-8 23 101 0
-8 26 102 0
-17 20 103 0
-17 23 104 0
-17 26 105 0
-26 20 106 0
-26 23 107 0
-26 26 108 0
-3 3 28 0
-3 6 29 0
-3 9 30 0
-12 3 31 0
-12 6 32 0
-12 9 33 0
-21 3 34 0
-21 6 35 0
-21 9 36 0
-3 12 37 0
-3 15 38 0
-3 18 39 0
-12 12 40 0
-12 15 41 0
-12 18 42 0
-21 12 43 0
-21 15 44 0
-21 18 45 0
-3 21 46 0
-3 24 47 0
-3 27 48 0
-12 21 49 0
-12 24 50 0
-12 27 51 0
-21 21 52 0
-21 24 53 0
-21 27 54 0
-6 3 55 0
-6 6 56 0
-6 9 57 0
-15 3 58 0
-15 6 59 0
-15 9 60 0
-24 3 61 0
-24 6 62 0
-24 9 63 0
-6 12 64 0
-6 15 65 0
-6 18 66 0
-15 12 67 0
-15 15 68 0
-15 18 69 0
-24 12 70 0
-24 15 71 0
-24 18 72 0
-6 21 73 0
-6 24 74 0
-6 27 75 0
-15 21 76 0
-15 24 77 0
-15 27 78 0
-24 21 79 0
-24 24 80 0
-24 27 81 0
-9 3 82 0
-9 6 83 0
-9 9 84 0
-18 3 85 0
-18 6 86 0
-18 9 87 0
-27 3 88 0
-27 6 89 0
-27 9 90 0
-9 12 91 0
-9 15 92 0
-9 18 93 0
-18 12 94 0
-18 15 95 0
-18 18 96 0
-27 12 97 0
-27 15 98 0
-27 18 99 0
-9 21 100 0
-9 24 101 0
-9 27 102 0
-18 21 103 0
-18 24 104 0
-18 27 105 0
-27 21 106 0
-27 24 107 0
-27 27 108 0
-1 -1 -28 0
-4 -1 -29 0
-7 -1 -30 0
-10 -4 -28 0
-13 -4 -29 0
-16 -4 -30 0
-19 -7 -28 0
-22 -7 -29 0
-25 -7 -30 0
-1 -10 -31 0
-4 -10 -32 0
-7 -10 -33 0
-10 -13 -31 0
-13 -13 -32 0
-16 -13 -33 0
-19 -16 -31 0
-22 -16 -32 0
-25 -16 -33 0
-1 -19 -34 0
-4 -19 -35 0
-7 -19 -36 0
-10 -22 -34 0
-13 -22 -35 0
-16 -22 -36 0
-19 -25 -34 0
-22 -25 -35 0
-25 -25 -36 0
-1 -2 -37 0
-4 -2 -38 0
-7 -2 -39 0
-10 -5 -37 0
-13 -5 -38 0
-16 -5 -39 0
-19 -8 -37 0
-22 -8 -38 0
-25 -8 -39 0
-1 -11 -40 0
-4 -11 -41 0
-7 -11 -42 0
-10 -14 -40 0
-13 -14 -41 0
-16 -14 -42 0
-19 -17 -40 0
-22 -17 -41 0
-25 -17 -42 0
-1 -20 -43 0
-4 -20 -44 0
-7 -20 -45 0
-10 -23 -43 0
-13 -23 -44 0
-16 -23 -45 0
-19 -26 -43 0
-22 -26 -44 0
-25 -26 -45 0
-1 -3 -46 0
-4 -3 -47 0
-7 -3 -48 0
-10 -6 -46 0
-13 -6 -47 0
-16 -6 -48 0
-19 -9 -46 0
-22 -9 -47 0
-25 -9 -48 0
-1 -12 -49 0
-4 -12 -50 0
-7 -12 -51 0
-10 -15 -49 0
-13 -15 -50 0
-16 -15 -51 0
-19 -18 -49 0
-22 -18 -50 0
-25 -18 -51 0
-1 -21 -52 0
-4 -21 -53 0
-7 -21 -54 0
-10 -24 -52 0
-13 -24 -53 0
-16 -24 -54 0
-19 -27 -52 0
-22 -27 -53 0
-25 -27 -54 0
-2 -1 -55 0
-5 -1 -56 0
-8 -1 -57 0
-11 -4 -55 0
-14 -4 -56 0
-17 -4 -57 0
-20 -7 -55 0
-23 -7 -56 0
-26 -7 -57 0
-2 -10 -58 0
-5 -10 -59 0
-8 -10 -60 0
-11 -13 -58 0
-14 -13 -59 0
-17 -13 -60 0
-20 -16 -58 0
-23 -16 -59 0
-26 -16 -60 0
-2 -19 -61 0
-5 -19 -62 0
-8 -19 -63 0
-11 -22 -61 0
-14 -22 -62 0
-17 -22 -63 0
-20 -25 -61 0
-23 -25 -62 0
-26 -25 -63 0
-2 -2 -64 0
-5 -2 -65 0
-8 -2 -66 0
-11 -5 -64 0
-14 -5 -65 0
-17 -5 -66 0
-20 -8 -64 0
-23 -8 -65 0
-26 -8 -66 0
-2 -11 -67 0
-5 -11 -68 0
-8 -11 -69 0
-11 -14 -67 0
-14 -14 -68 0
-17 -14 -69 0
-20 -17 -67 0
-23 -17 -68 0
-26 -17 -69 0
-2 -20 -70 0
-5 -20 -71 0
-8 -20 -72 0
-11 -23 -70 0
-14 -23 -71 0
-17 -23 -72 0
-20 -26 -70 0
-23 -26 -71 0
-26 -26 -72 0
-2 -3 -73 0
-5 -3 -74 0
-8 -3 -75 0
-11 -6 -73 0
-14 -6 -74 0
-17 -6 -75 0
-20 -9 -73 0
-23 -9 -74 0
-26 -9 -75 0
-2 -12 -76 0
-5 -12 -77 0
-8 -12 -78 0
-11 -15 -76 0
-14 -15 -77 0
-17 -15 -78 0
-20 -18 -76 0
-23 -18 -77 0
-26 -18 -78 0
-2 -21 -79 0
-5 -21 -80 0
-8 -21 -81 0
-11 -24 -79 0
-14 -24 -80 0
-17 -24 -81 0
-20 -27 -79 0
-23 -27 -80 0
-26 -27 -81 0
-3 -1 -82 0
-6 -1 -83 0
-9 -1 -84 0
-12 -4 -82 0
-15 -4 -83 0
-18 -4 -84 0
-21 -7 -82 0
-24 -7 -83 0
-27 -7 -84 0
-3 -10 -85 0
-6 -10 -86 0
-9 -10 -87 0
-12 -13 -85 0
-15 -13 -86 0
-18 -13 -87 0
-21 -16 -85 0
-24 -16 -86 0
-27 -16 -87 0
-3 -19 -88 0
-6 -19 -89 0
-9 -19 -90 0
-12 -22 -88 0
-15 -22 -89 0
-18 -22 -90 0
-21 -25 -88 0
-24 -25 -89 0
-27 -25 -90 0
-3 -2 -91 0
-6 -2 -92 0
-9 -2 -93 0
-12 -5 -91 0
-15 -5 -92 0
-18 -5 -93 0
-21 -8 -91 0
-24 -8 -92 0
-27 -8 -93 0
-3 -11 -94 0
-6 -11 -95 0
-9 -11 -96 0
-12 -14 -94 0
-15 -14 -95 0
-18 -14 -96 0
-21 -17 -94 0
-24 -17 -95 0
-27 -17 -96 0
-3 -20 -97 0
-6 -20 -98 0
-9 -20 -99 0
-12 -23 -97 0
-15 -23 -98 0
-18 -23 -99 0
-21 -26 -97 0
-24 -26 -98 0
-27 -26 -99 0
-3 -3 -100 0
-6 -3 -101 0
-9 -3 -102 0
-12 -6 -100 0
-15 -6 -101 0
-18 -6 -102 0
-21 -9 -100 0
-24 -9 -101 0
-27 -9 -102 0
-3 -12 -103 0
-6 -12 -104 0
-9 -12 -105 0
-12 -15 -103 0
-15 -15 -104 0
-18 -15 -105 0
-21 -18 -103 0
-24 -18 -104 0
-27 -18 -105 0
-3 -21 -106 0
-6 -21 -107 0
-9 -21 -108 0
-12 -24 -106 0
-15 -24 -107 0
-18 -24 -108 0
-21 -27 -106 0
-24 -27 -107 0
-27 -27 -108 0
-109 -1 1 0
-110 -4 11 0
-111 -7 21 0
-112 -10 1 0
-113 -13 11 0
-114 -16 21 0
-115 -19 1 0
-116 -22 11 0
-117 -25 21 0
-109 -2 4 0
-110 -5 14 0
-111 -8 24 0
-112 -11 4 0
-113 -14 14 0
-114 -17 24 0
-115 -20 4 0
-116 -23 14 0
-117 -26 24 0
-109 -3 7 0
-110 -6 17 0
-111 -9 27 0
-112 -12 7 0
-113 -15 17 0
-114 -18 27 0
-115 -21 7 0
-116 -24 17 0
-117 -27 27 0
-109 -1 -1 109 0
-110 -10 -1 110 0
-111 -19 -1 111 0
-109 -2 -4 109 0
-110 -11 -4 110 0
-111 -20 -4 111 0
-109 -3 -7 109 0
-110 -12 -7 110 0
-111 -21 -7 111 0
-112 -4 -10 109 0
-113 -13 -10 110 0
-114 -22 -10 111 0
-112 -5 -13 109 0
-113 -14 -13 110 0
-114 -23 -13 111 0
-112 -6 -16 109 0
-113 -15 -16 110 0
-114 -24 -16 111 0
-115 -7 -19 109 0
-116 -16 -19 110 0
-117 -25 -19 111 0
-115 -8 -22 109 0
-116 -17 -22 110 0
-117 -26 -22 111 0
-115 -9 -25 109 0
-116 -18 -25 110 0
-117 -27 -25 111 0
-109 -1 -2 112 0
-110 -10 -2 113 0
-111 -19 -2 114 0
-109 -2 -5 112 0
-110 -11 -5 113 0
-111 -20 -5 114 0
-109 -3 -8 112 0
-110 -12 -8 113 0
-111 -21 -8 114 0
-112 -4 -11 112 0
-113 -13 -11 113 0
-114 -22 -11 114 0
-112 -5 -14 112 0
-113 -14 -14 113 0
-114 -23 -14 114 0
-112 -6 -17 112 0
-113 -15 -17 113 0
-114 -24 -17 114 0
-115 -7 -20 112 0
-116 -16 -20 113 0
-117 -25 -20 114 0
-115 -8 -23 112 0
-116 -17 -23 113 0
-117 -26 -23 114 0
-115 -9 -26 112 0
-116 -18 -26 113 0
-117 -27 -26 114 0
-109 -1 -3 115 0
-110 -10 -3 116 0
-111 -19 -3 117 0
-109 -2 -6 115 0
-110 -11 -6 116 0
-111 -20 -6 117 0
-109 -3 -9 115 0
-110 -12 -9 116 0
-111 -21 -9 117 0
-112 -4 -12 115 0
-113 -13 -12 116 0
-114 -22 -12 117 0
-112 -5 -15 115 0
-113 -14 -15 116 0
-114 -23 -15 117 0
-112 -6 -18 115 0
-113 -15 -18 116 0
-114 -24 -18 117 0
-115 -7 -21 115 0
-116 -16 -21 116 0
-117 -25 -21 117 0
-115 -8 -24 115 0
-116 -17 -24 116 0
-117 -26 -24 117 0
-115 -9 -27 115 0
-116 -18 -27 116 0
-117 -27 -27 117 0
-1 -1 -1 1 0
-1 -14 -10 4 0
-1 -27 -19 7 0
-14 -1 -4 10 0
-14 -14 -13 13 0
-14 -27 -22 16 0
-27 -1 -7 19 0
-27 -14 -16 22 0
-27 -27 -25 25 0
-1 -1 -2 2 0
-1 -14 -11 5 0
-1 -27 -20 8 0
-14 -1 -5 11 0
-14 -14 -14 14 0
-14 -27 -23 17 0
-27 -1 -8 20 0
-27 -14 -17 23 0
-27 -27 -26 26 0
-1 -1 -3 3 0
-1 -14 -12 6 0
-1 -27 -21 9 0
-14 -1 -6 12 0
-14 -14 -15 15 0
-14 -27 -24 18 0
-27 -1 -9 21 0
-27 -14 -18 24 0
-27 -27 -27 27 0
1 2 3 0
-1 -2 0
-1 -3 0
-2 -3 0
4 5 6 0
-4 -5 0
-4 -6 0
-5 -6 0
7 8 9 0
-7 -8 0
-7 -9 0
-8 -9 0
10 11 12 0
-10 -11 0
-10 -12 0
-11 -12 0
13 14 15 0
-13 -14 0
-13 -15 0
-14 -15 0
16 17 18 0
-16 -17 0
-16 -18 0
-17 -18 0
19 20 21 0
-19 -20 0
-19 -21 0
-20 -21 0
22 23 24 0
-22 -23 0
-22 -24 0
-23 -24 0
25 26 27 0
-25 -26 0
-25 -27 0
-26 -27 0
109 112 115 0
-109 -112 0
-109 -115 0
-112 -115 0
110 113 116 0
-110 -113 0
-110 -116 0
-113 -116 0
111 114 117 0
-111 -114 0
-111 -117 0
-114 -117 0
-882 2 0
-883 1 0
882 883 0
882 884 0
-884 885 886 0
-884 885 887 0
-887 888 889 0
-887 888 890 0
-890 891 892 0
-890 891 893 0
-893 894 895 0
-893 894 896 0
-896 897 898 0
-896 897 899 0
-899 900 901 0
-899 900 902 0
-902 903 904 0
-902 903 905 0
-905 906 907 0
-885 -4 8 9 0
-885 -5 8 0
-885 -6 0
-886 -4 7 0
-886 -5 9 0
-886 -6 8 0
882 883 0
882 884 0
-884 885 886 0
-884 885 887 0
-887 888 889 0
-887 888 890 0
-890 891 892 0
-890 891 893 0
-893 894 895 0
-893 894 896 0
-896 897 898 0
-896 897 899 0
-899 900 901 0
-899 900 902 0
-902 903 904 0
-902 903 905 0
-905 906 907 0
-888 -7 5 6 0
-888 -8 5 0
-888 -9 0
-889 -7 4 0
-889 -8 6 0
-889 -9 5 0
882 883 0
882 884 0
-884 885 886 0
-884 885 887 0
-887 888 889 0
-887 888 890 0
-890 891 892 0
-890 891 893 0
-893 894 895 0
-893 894 896 0
-896 897 898 0
-896 897 899 0
-899 900 901 0
-899 900 902 0
-902 903 904 0
-902 903 905 0
-905 906 907 0
-891 -10 20 21 0
-891 -11 20 0
-891 -12 0
-892 -10 19 0
-892 -11 21 0
-892 -12 20 0
882 883 0
882 884 0
-884 885 886 0
-884 885 887 0
-887 888 889 0
-887 888 890 0
-890 891 892 0
-890 891 893 0
-893 894 895 0
-893 894 896 0
-896 897 898 0
-896 897 899 0
-899 900 901 0
-899 900 902 0
-902 903 904 0
-902 903 905 0
-905 906 907 0
-894 -13 26 27 0
-894 -14 26 0
-894 -15 0
-895 -13 25 0
-895 -14 27 0
-895 -15 26 0
882 883 0
882 884 0
-884 885 886 0
-884 885 887 0
-887 888 889 0
-887 888 890 0
-890 891 892 0
-890 891 893 0
-893 894 895 0
-893 894 896 0
-896 897 898 0
-896 897 899 0
-899 900 901 0
-899 900 902 0
-902 903 904 0
-902 903 905 0
-905 906 907 0
-897 -16 23 24 0
-897 -17 23 0
-897 -18 0
-898 -16 22 0
-898 -17 24 0
-898 -18 23 0
882 883 0
882 884 0
-884 885 886 0
-884 885 887 0
-887 888 889 0
-887 888 890 0
-890 891 892 0
-890 891 893 0
-893 894 895 0
-893 894 896 0
-896 897 898 0
-896 897 899 0
-899 900 901 0
-899 900 902 0
-902 903 904 0
-902 903 905 0
-905 906 907 0
-900 -19 11 12 0
-900 -20 11 0
-900 -21 0
-901 -19 10 0
-901 -20 12 0
-901 -21 11 0
882 883 0
882 884 0
-884 885 886 0
-884 885 887 0
-887 888 889 0
-887 888 890 0
-890 891 892 0
-890 891 893 0
-893 894 895 0
-893 894 896 0
-896 897 898 0
-896 897 899 0
-899 900 901 0
-899 900 902 0
-902 903 904 0
-902 903 905 0
-905 906 907 0
-903 -22 17 18 0
-903 -23 17 0
-903 -24 0
-904 -22 16 0
-904 -23 18 0
-904 -24 17 0
882 883 0
882 884 0
-884 885 886 0
-884 885 887 0
-887 888 889 0
-887 888 890 0
-890 891 892 0
-890 891 893 0
-893 894 895 0
-893 894 896 0
-896 897 898 0
-896 897 899 0
-899 900 901 0
-899 900 902 0
-902 903 904 0
-902 903 905 0
-905 906 907 0
-906 -25 14 15 0
-906 -26 14 0
-906 -27 0
-907 -25 13 0
-907 -26 15 0
-907 -27 14 0
882 883 0
882 884 0
-884 885 886 0
-884 885 887 0
-887 888 889 0
-887 888 890 0
-890 891 892 0
-890 891 893 0
-893 894 895 0
-893 894 896 0
-896 897 898 0
-896 897 899 0
-899 900 901 0
-899 900 902 0
-902 903 904 0
-902 903 905 0
-905 906 907 0
-908 -1 13 15 0
-908 -2 13 0
-908 -3 0
-909 -1 14 0
-909 -2 15 0
-909 -3 13 0
908 909 0
908 910 0
-910 911 912 0
-910 911 913 0
-913 914 915 0
-913 914 916 0
-916 917 918 0
-916 917 919 0
-919 920 921 0
-919 920 922 0
-922 923 924 0
-922 923 925 0
-925 926 927 0
-925 926 928 0
-928 929 930 0
-928 929 931 0
-931 932 933 0
-911 -4 16 18 0
-911 -5 16 0
-911 -6 0
-912 -4 17 0
-912 -5 18 0
-912 -6 16 0
908 909 0
908 910 0
-910 911 912 0
-910 911 913 0
-913 914 915 0
-913 914 916 0
-916 917 918 0
-916 917 919 0
-919 920 921 0
-919 920 922 0
-922 923 924 0
-922 923 925 0
-925 926 927 0
-925 926 928 0
-928 929 930 0
-928 929 931 0
-931 932 933 0
-914 -7 10 12 0
-914 -8 10 0
-914 -9 0
-915 -7 11 0
-915 -8 12 0
-915 -9 10 0
908 909 0
908 910 0
-910 911 912 0
-910 911 913 0
-913 914 915 0
-913 914 916 0
-916 917 918 0
-916 917 919 0
-919 920 921 0
-919 920 922 0
-922 923 924 0
-922 923 925 0
-925 926 927 0
-925 926 928 0
-928 929 930 0
-928 929 931 0
-931 932 933 0
-917 -10 22 24 0
-917 -11 22 0
-917 -12 0
-918 -10 23 0
-918 -11 24 0
-918 -12 22 0
908 909 0
908 910 0
-910 911 912 0
-910 911 913 0
-913 914 915 0
-913 914 916 0
-916 917 918 0
-916 917 919 0
-919 920 921 0
-919 920 922 0
-922 923 924 0
-922 923 925 0
-925 926 927 0
-925 926 928 0
-928 929 930 0
-928 929 931 0
-931 932 933 0
-920 -13 25 27 0
-920 -14 25 0
-920 -15 0
-921 -13 26 0
-921 -14 27 0
-921 -15 25 0
908 909 0
908 910 0
-910 911 912 0
-910 911 913 0
-913 914 915 0
-913 914 916 0
-916 917 918 0
-916 917 919 0
-919 920 921 0
-919 920 922 0
-922 923 924 0
-922 923 925 0
-925 926 927 0
-925 926 928 0
-928 929 930 0
-928 929 931 0
-931 932 933 0
-923 -16 19 21 0
-923 -17 19 0
-923 -18 0
-924 -16 20 0
-924 -17 21 0
-924 -18 19 0
908 909 0
908 910 0
-910 911 912 0
-910 911 913 0
-913 914 915 0
-913 914 916 0
-916 917 918 0
-916 917 919 0
-919 920 921 0
-919 920 922 0
-922 923 924 0
-922 923 925 0
-925 926 927 0
-925 926 928 0
-928 929 930 0
-928 929 931 0
-931 932 933 0
-926 -19 4 6 0
-926 -20 4 0
-926 -21 0
-927 -19 5 0
-927 -20 6 0
-927 -21 4 0
908 909 0
908 910 0
-910 911 912 0
-910 911 913 0
-913 914 915 0
-913 914 916 0
-916 917 918 0
-916 917 919 0
-919 920 921 0
-919 920 922 0
-922 923 924 0
-922 923 925 0
-925 926 927 0
-925 926 928 0
-928 929 930 0
-928 929 931 0
-931 932 933 0
-929 -22 7 9 0
-929 -23 7 0
-929 -24 0
-930 -22 8 0
-930 -23 9 0
-930 -24 7 0
908 909 0
908 910 0
-910 911 912 0
-910 911 913 0
-913 914 915 0
-913 914 916 0
-916 917 918 0
-916 917 919 0
-919 920 921 0
-919 920 922 0
-922 923 924 0
-922 923 925 0
-925 926 927 0
-925 926 928 0
-928 929 930 0
-928 929 931 0
-931 932 933 0
-932 -25 1 3 0
-932 -26 1 0
-932 -27 0
-933 -25 2 0
-933 -26 3 0
-933 -27 1 0
908 909 0
908 910 0
-910 911 912 0
-910 911 913 0
-913 914 915 0
-913 914 916 0
-916 917 918 0
-916 917 919 0
-919 920 921 0
-919 920 922 0
-922 923 924 0
-922 923 925 0
-925 926 927 0
-925 926 928 0
-928 929 930 0
-928 929 931 0
-931 932 933 0
-934 -1 25 26 0
-934 -2 25 0
-934 -3 0
-935 -1 27 0
-935 -2 26 0
-935 -3 25 0
934 935 0
934 936 0
-936 937 938 0
-936 937 939 0
-939 940 941 0
-939 940 942 0
-942 943 944 0
-942 943 945 0
-945 946 947 0
-945 946 948 0
-948 949 950 0
-948 949 951 0
-951 952 953 0
-951 952 954 0
-954 955 956 0
-954 955 957 0
-957 958 959 0
-937 -4 22 23 0
-937 -5 22 0
-937 -6 0
-938 -4 24 0
-938 -5 23 0
-938 -6 22 0
934 935 0
934 936 0
-936 937 938 0
-936 937 939 0
-939 940 941 0
-939 940 942 0
-942 943 944 0
-942 943 945 0
-945 946 947 0
-945 946 948 0
-948 949 950 0
-948 949 951 0
-951 952 953 0
-951 952 954 0
-954 955 956 0
-954 955 957 0
-957 958 959 0
-940 -7 19 20 0
-940 -8 19 0
-940 -9 0
-941 -7 21 0
-941 -8 20 0
-941 -9 19 0
934 935 0
934 936 0
-936 937 938 0
-936 937 939 0
-939 940 941 0
-939 940 942 0
-942 943 944 0
-942 943 945 0
-945 946 947 0
-945 946 948 0
-948 949 950 0
-948 949 951 0
-951 952 953 0
-951 952 954 0
-954 955 956 0
-954 955 957 0
-957 958 959 0
-943 -10 16 17 0
-943 -11 16 0
-943 -12 0
-944 -10 18 0
-944 -11 17 0
-944 -12 16 0
934 935 0
934 936 0
-936 937 938 0
-936 937 939 0
-939 940 941 0
-939 940 942 0
-942 943 944 0
-942 943 945 0
-945 946 947 0
-945 946 948 0
-948 949 950 0
-948 949 951 0
-951 952 953 0
-951 952 954 0
-954 955 956 0
-954 955 957 0
-957 958 959 0
-946 13 0
-947 14 0
934 935 0
934 936 0
-936 937 938 0
-936 937 939 0
-939 940 941 0
-939 940 942 0
-942 943 944 0
-942 943 945 0
-945 946 947 0
-945 946 948 0
-948 949 950 0
-948 949 951 0
-951 952 953 0
-951 952 954 0
-954 955 956 0
-954 955 957 0
-957 958 959 0
-949 -16 10 11 0
-949 -17 10 0
-949 -18 0
-950 -16 12 0
-950 -17 11 0
-950 -18 10 0
934 935 0
934 936 0
-936 937 938 0
-936 937 939 0
-939 940 941 0
-939 940 942 0
-942 943 944 0
-942 943 945 0
-945 946 947 0
-945 946 948 0
-948 949 950 0
-948 949 951 0
-951 952 953 0
-951 952 954 0
-954 955 956 0
-954 955 957 0
-957 958 959 0
-952 -19 7 8 0
-952 -20 7 0
-952 -21 0
-953 -19 9 0
-953 -20 8 0
-953 -21 7 0
934 935 0
934 936 0
-936 937 938 0
-936 937 939 0
-939 940 941 0
-939 940 942 0
-942 943 944 0
-942 943 945 0
-945 946 947 0
-945 946 948 0
-948 949 950 0
-948 949 951 0
-951 952 953 0
-951 952 954 0
-954 955 956 0
-954 955 957 0
-957 958 959 0
-955 -22 4 5 0
-955 -23 4 0
-955 -24 0
-956 -22 6 0
-956 -23 5 0
-956 -24 4 0
934 935 0
934 936 0
-936 937 938 0
-936 937 939 0
-939 940 941 0
-939 940 942 0
-942 943 944 0
-942 943 945 0
-945 946 947 0
-945 946 948 0
-948 949 950 0
-948 949 951 0
-951 952 953 0
-951 952 954 0
-954 955 956 0
-954 955 957 0
-957 958 959 0
-958 -25 1 2 0
-958 -26 1 0
-958 -27 0
-959 -25 3 0
-959 -26 2 0
-959 -27 1 0
934 935 0
934 936 0
-936 937 938 0
-936 937 939 0
-939 940 941 0
-939 940 942 0
-942 943 944 0
-942 943 945 0
-945 946 947 0
-945 946 948 0
-948 949 950 0
-948 949 951 0
-951 952 953 0
-951 952 954 0
-954 955 956 0
-954 955 957 0
-957 958 959 0
